NAME: ACTUAL_TOURS/amz1444
TYPE: TOUR
COMMENT: RouteID_9a0e27f1-5399-4a42-b608-63b52af7974c
DIMENSION: 115
TOUR_SECTION
86
53
102
69
104
40
12
59
109
92
27
107
70
22
64
71
2
103
34
19
10
44
89
97
48
72
60
112
98
28
80
51
79
36
13
67
32
30
43
18
61
81
88
21
87
23
111
94
37
90
9
11
76
42
15
101
58
3
33
66
31
55
41
56
114
47
54
73
49
100
77
74
113
91
95
16
35
68
46
7
82
52
29
108
25
57
24
65
26
1
115
63
75
84
17
20
5
99
50
38
83
106
96
39
110
85
45
105
93
6
8
14
62
4
78
-1
EOF
